qbf_easy_train/easy_2238_SAT.qdimacs
p cnf 19 42
a 8 7 0
e 1 2 3 4 5 6 9 10 11 12 13 14 15 16 17 18 19 0
-1 2 -3 0
1 -2 -3 0
-1 -2 3 0
1 2 3 0
5 3 0
5 -4 0
-3 4 -5 0
-3 1 -6 0
3 -1 -6 0
-3 -1 6 0
3 1 6 0
-10 8 0
-10 9 0
-8 -9 10 0
7 -10 -11 0
-7 10 -11 0
7 10 11 0
-7 -10 11 0
-12 6 0
-12 -11 0
-6 11 12 0
-14 -13 0
-14 2 0
13 -2 14 0
-15 -12 0
-15 14 0
12 -14 15 0
-5 -15 -16 0
5 15 -16 0
-5 15 16 0
5 -15 16 0
18 17 0
18 1 0
-17 -1 -18 0
19 16 0
19 18 0
-16 -18 -19 0
9 -2 16 0
19 -17 -3 9 -1 4 0
14 2 6 -4 0
4 -3 -5 9 10 11 0
19 0
