sat_easy_train/easy_2238_SAT.dimacs
p cnf 100 316
-3 1 0
-3 2 0
-1 -2 3 0
4 1 0
4 2 0
-1 -2 -4 0
-6 4 0
-6 -5 0
-4 5 6 0
9 -7 0
9 8 0
7 -8 -9 0
6 -9 -10 0
-6 9 -10 0
6 9 10 0
-6 -9 10 0
12 11 0
12 -11 0
13 -2 0
13 12 0
2 -12 -13 0
14 -10 0
14 13 0
10 -13 -14 0
-16 4 0
-16 -2 0
-4 2 16 0
17 2 0
17 -16 0
-2 16 -17 0
-18 -15 0
-18 -17 0
15 17 18 0
-20 18 0
-20 -19 0
-18 19 20 0
14 20 -21 0
-14 -20 -21 0
14 -20 21 0
-14 20 21 0
-24 22 0
-24 -23 0
-22 23 24 0
-6 11 -25 0
6 -11 -25 0
-6 -11 25 0
6 11 25 0
-26 -24 0
-26 -25 0
24 25 26 0
-26 -9 -27 0
26 9 -27 0
-26 9 27 0
26 -9 27 0
-28 21 0
-28 27 0
-21 -27 28 0
30 5 0
30 -5 0
29 -30 -31 0
-29 30 -31 0
29 30 31 0
-29 -30 31 0
32 28 0
32 -31 0
-28 31 -32 0
34 -11 0
34 -33 0
11 33 -34 0
30 34 -35 0
-30 -34 -35 0
30 -34 35 0
-30 34 35 0
-4 -1 -36 0
4 1 -36 0
-4 1 36 0
4 -1 36 0
-36 -37 0
36 -37 0
-38 35 0
-38 37 0
-35 -37 38 0
-40 39 0
-40 30 0
-39 -30 40 0
41 26 0
41 -15 0
-26 15 -41 0
42 -40 0
42 41 0
40 -41 -42 0
38 -42 -43 0
-38 42 -43 0
38 42 43 0
-38 -42 43 0
32 -43 -44 0
-32 43 -44 0
32 43 44 0
-32 -43 44 0
3 44 -45 0
-3 -44 -45 0
3 -44 45 0
-3 44 45 0
-39 46 -47 0
39 -46 -47 0
-39 -46 47 0
39 46 47 0
47 -5 -48 0
-47 5 -48 0
47 5 48 0
-47 -5 48 0
-48 -17 -49 0
48 17 -49 0
-48 17 49 0
48 -17 49 0
-45 -49 -50 0
45 49 -50 0
-45 49 50 0
45 -49 50 0
51 40 0
51 17 0
-40 -17 -51 0
-52 34 0
-52 51 0
-34 -51 52 0
52 -53 -54 0
-52 53 -54 0
52 53 54 0
-52 -53 54 0
50 -54 -55 0
-50 54 -55 0
50 54 55 0
-50 -54 55 0
-17 -51 -56 0
17 51 -56 0
-17 51 56 0
17 -51 56 0
57 1 0
57 -23 0
-1 23 -57 0
-8 -58 -59 0
8 58 -59 0
-8 58 59 0
8 -58 59 0
-57 -59 -60 0
57 59 -60 0
-57 59 60 0
57 -59 60 0
-61 47 0
-61 -60 0
-47 60 61 0
-62 -56 0
-62 -61 0
56 61 62 0
63 12 0
63 -39 0
-12 39 -63 0
64 -29 0
64 7 0
29 -7 -64 0
-65 -4 0
-65 -21 0
4 21 65 0
-66 -64 0
-66 -65 0
64 65 66 0
-67 -63 0
-67 -66 0
63 66 67 0
68 62 0
68 -67 0
-62 67 -68 0
69 40 0
69 -15 0
-40 15 -69 0
-70 17 0
-70 69 0
-17 -69 70 0
-35 -70 -71 0
35 70 -71 0
-35 70 71 0
35 -70 71 0
-35 -7 -72 0
35 7 -72 0
-35 7 72 0
35 -7 72 0
73 71 0
73 72 0
-71 -72 -73 0
-74 46 0
-74 -30 0
-46 30 74 0
-75 9 0
-75 74 0
-9 -74 75 0
-73 75 -76 0
73 -75 -76 0
-73 -75 76 0
73 75 76 0
-58 -17 -77 0
58 17 -77 0
-58 17 77 0
58 -17 77 0
-78 77 0
-78 52 0
-77 -52 78 0
79 -76 0
79 78 0
76 -78 -79 0
80 -60 0
80 60 0
-81 -2 0
-81 29 0
2 -29 81 0
-82 80 0
-82 81 0
-80 -81 82 0
-83 36 0
-83 15 0
-36 -15 83 0
-83 17 -84 0
83 -17 -84 0
-83 -17 84 0
83 17 84 0
85 82 0
85 84 0
-82 -84 -85 0
86 52 0
86 27 0
-52 -27 -86 0
87 -85 0
87 -86 0
85 86 -87 0
88 -20 0
88 83 0
20 -83 -88 0
-89 12 0
-89 9 0
-12 -9 89 0
-90 88 0
-90 -89 0
-88 89 90 0
-87 90 -91 0
87 -90 -91 0
-87 -90 91 0
87 90 91 0
-92 -33 0
-92 12 0
33 -12 92 0
-93 -59 0
-93 22 0
59 -22 93 0
94 52 0
94 -40 0
-52 40 -94 0
95 93 0
95 94 0
-93 -94 -95 0
92 -95 -96 0
-92 95 -96 0
92 95 96 0
-92 -95 96 0
97 91 0
97 96 0
-91 -96 -97 0
98 -79 0
98 -97 0
79 97 -98 0
99 -68 0
99 98 0
68 -98 -99 0
100 55 0
100 99 0
-55 -99 -100 0
-65 -51 -21 70 0
85 7 80 -44 19 -32 0
-29 -9 0
21 -34 62 20 -17 -76 0
-62 -98 0
-14 41 27 80 33 84 0
-76 4 0
97 7 0
-94 -87 -10 73 95 0
-87 60 48 22 0
-85 36 22 -46 0
67 61 -76 0
31 100 79 0
10 53 73 0
-78 42 -73 0
95 64 77 0
5 21 1 0
-96 94 0
-55 -26 -74 0
-36 -12 73 0
-6 -44 -41 23 0
80 72 0
-21 92 -85 -20 63 14 0
-32 -3 75 0
-6 17 -12 22 18 0
-54 95 82 29 81 0
-31 100 -76 -50 60 0
-80 -84 8 -15 13 -23 0
47 40 98 0
74 -88 48 -24 0
-17 41 -1 -75 2 0
96 27 51 -46 59 0
41 -60 79 89 0
14 54 -61 0
72 -80 51 2 94 90 0
-34 -84 -53 73 -48 0
25 -34 0
-61 -96 48 17 -67 -7 0
60 78 93 82 69 0
69 83 71 76 -12 67 0
-36 -86 -22 0
100 0
